\ Model vert
\ LP format - for model browsing. Use MPS format to capture full model detail.
Minimize
  28994.66618588957 S_coef + 66.4025804984165 Constant + [
   6.330256e+06 S_coef ^2 ] / 2 
Subject To
Bounds
 -1000 <= S_coef <= 0
 Constant = 1
End
